nobel_us ALL intd k=5: arcs=38, intd=38, γ=1, w=16.6557

============================================================
Nominal SP (MILP)
============================================================
Set parameter Username
Set parameter LicenseID to value 2742039
Academic license - for non-commercial use only - expires 2026-11-20
Building 2SP model...
  Nodes: 14, Arcs: 38, Scenarios: 20
  Interdictable arcs: 39
  Dummy arc index: 39
  Parameters: ϕU = 2.0, γ = 1, w = 16.6557, v = 1.0
┌ Warning: Axis contains one element: 1. If intended, you can safely ignore this warning. To explicitly pass the axis with one element, pass `[1]` instead of `1`.
└ @ JuMP.Containers C:\Users\user\.julia\packages\JuMP\i68GU\src\Containers\DenseAxisArray.jl:185
  ✓ Decision variables created
  ✓ Constraints (14a-14c) added
  Adding Big-M constraints (14j, 14k)...
  ✓ Big-M constraints (14j, 14k) added
  ✓ Budget constraint (14l) added
  Adding dual constraints (14m-14p)...
  ✓ Dual constraints (14m-14p) added for all scenarios
  ✓ Linearization constraints (14q) added

Model construction summary:
  - Variables: 170936
  - Constraints: 180536
  - Binary variables: 38
================================================================================
Set parameter OutputFlag to value 1
Set parameter OutputFlag to value 1
Gurobi Optimizer version 13.0.0 build v13.0.0rc1 (win64 - Windows 10.0 (19045.2))

CPU model: AMD Ryzen 9 5900X 12-Core Processor, instruction set [SSE2|AVX|AVX2]
Thread count: 12 physical cores, 24 logical processors, using up to 24 threads

Optimize a model with 184993 rows, 170936 columns and 969100 nonzeros (Min)
Model fingerprint: 0xda13a2d3
Model has 41 linear objective coefficients
Variable types: 170898 continuous, 38 integer (38 binary)
Coefficient statistics:
  Matrix range     [1e+00, 3e+02]
  Objective range  [5e-02, 2e+01]
  Bounds range     [2e+00, 2e+00]
  RHS range        [1e-03, 2e+00]
Found heuristic solution: objective 368184.41294
Presolve removed 42027 rows and 57286 columns
Presolve time: 2.12s
Presolved: 142966 rows, 113650 columns, 484781 nonzeros
Found heuristic solution: objective 351636.48311
Variable types: 113614 continuous, 36 integer (36 binary)
Deterministic concurrent LP optimizer: primal and dual simplex
Showing primal log only...


Root simplex log...

Iteration    Objective       Primal Inf.    Dual Inf.      Time
  102725    2.5595610e+04   0.000000e+00   2.524798e+06      5s
  108380    2.5270963e+04   0.000000e+00   4.570242e+07     10s
  113050    2.1809953e+04   0.000000e+00   7.843120e+08     15s
  116950    1.9838396e+04   0.000000e+00   1.978284e+07     20s
  121450    1.9794025e+04   0.000000e+00   2.051337e+06     25s
  127520    1.9781464e+04   0.000000e+00   3.390165e+06     30s
  132550    1.9777171e+04   0.000000e+00   1.168352e+05     35s
  137500    1.9771593e+04   0.000000e+00   1.450418e+05     40s
  143331    1.9632105e+04   0.000000e+00   5.067345e+08     45s
  150211    1.9240335e+04   0.000000e+00   8.871896e+06     50s
  153860    1.8903676e+04   0.000000e+00   5.767415e+07     55s
  158030    1.8782816e+04   0.000000e+00   9.381591e+04     60s
  162630    1.8749565e+04   0.000000e+00   6.652820e+06     65s
Concurrent spin time: 0.00s

Solved with dual simplex

Root simplex log...

Iteration    Objective       Primal Inf.    Dual Inf.      Time
   87754   -3.6965780e+01   0.000000e+00   0.000000e+00     70s

Root relaxation: objective -3.696578e+01, 87754 iterations, 67.65 seconds (159.74 work units)

    Nodes    |    Current Node    |     Objective Bounds      |     Work
 Expl Unexpl |  Obj  Depth IntInf | Incumbent    BestBd   Gap | It/Node Time

     0     0  -36.96578    0   16 351636.483  -36.96578   100%     -   73s
     0     0  -36.96571    0   18 351636.483  -36.96571   100%     -  110s
     0     0  -36.96560    0   18 351636.483  -36.96560   100%     -  110s
H    0     0                      20.6330565  -36.96480   279%     -  119s
     0     0  -36.96480    0   20   20.63306  -36.96480   279%     -  120s
     0     0  -36.96393    0   20   20.63306  -36.96393   279%     -  121s
     0     0  -36.96014    0   18   20.63306  -36.96014   279%     -  146s
     0     0  -36.83543    0   18   20.63306  -36.83543   279%     -  155s
     0     0  -36.81242    0   24   20.63306  -36.81242   278%     -  164s
     0     0  -36.56530    0   22   20.63306  -36.56530   277%     -  169s
     0     0  -36.56098    0   22   20.63306  -36.56098   277%     -  172s
     0     0  -36.53919    0   24   20.63306  -36.53919   277%     -  173s
     0     0  -36.53919    0   27   20.63306  -36.53919   277%     -  176s
     0     0  -36.53777    0   27   20.63306  -36.53777   277%     -  176s
     0     0  -36.53777    0   26   20.63306  -36.53777   277%     -  178s
     0     0  -36.53617    0   26   20.63306  -36.53617   277%     -  179s
     0     0  -36.53617    0   25   20.63306  -36.53617   277%     -  181s
     0     0  -36.53617    0   25   20.63306  -36.53617   277%     -  181s
     0     0  -36.53617    0   25   20.63306  -36.53617   277%     -  183s
     0     0  -36.53617    0   24   20.63306  -36.53617   277%     -  184s
     0     0  -36.53617    0   24   20.63306  -36.53617   277%     -  185s
     0     0  -36.53617    0   22   20.63306  -36.53617   277%     -  202s
     0     0  -35.84517    0   24   20.63306  -35.84517   274%     -  226s
     0     0  -35.84517    0   26   20.63306  -35.84517   274%     -  247s
     0     0  -35.84517    0   25   20.63306  -35.84517   274%     -  248s
     0     0  -35.84517    0   25   20.63306  -35.84517   274%     -  253s
     0     0  -35.84517    0   25   20.63306  -35.84517   274%     -  254s
     0     2  -35.84517    0   24   20.63306  -35.84517   274%     -  284s
     1     1     cutoff    1        20.63306  -35.84517   274% 20517  296s
     2     2  -35.23592    1   24   20.63306  -35.23592   271% 14108  316s
     3     2  -32.79629    2   21   20.63306  -33.09446   260% 15254  330s
     5     2  -28.63184    3   19   20.63306  -29.56110   243% 18257  345s
     7     2  -21.28453    4   18   20.63306  -24.61171   219% 19001  359s
     9     2  -15.12757    5   20   20.63306  -19.21581   193% 19376  366s
    11     2  -14.87039    6   19   20.63306  -14.87039   172% 17804  371s
    13     2  -14.10087    7   18   20.63306  -14.81815   172% 17041  376s
*   16     2               8      20.4451012  -10.69694   152% 16052  378s
*   18     2               9      20.4399321   -6.98439   134% 15092  379s
    19     2    4.18045   10   12   20.43993   -6.98439   134% 14554  381s
*   20     2              10      20.4383680    4.26988  79.1% 14621  381s

Cutting planes:
  MIR: 419
  Flow cover: 88
  RLT: 22

Explored 29 nodes (472813 simplex iterations) in 384.58 seconds (1154.23 work units)
Thread count was 24 (of 24 available processors)

Solution count 6: 20.4384 20.4399 20.4451 ... 368184

Optimal solution found (tolerance 1.00e-04)
Best objective 2.043836801591e+01, best bound 2.043836801591e+01, gap 0.0000%

User-callback calls 34408, time in user-callback 0.04 sec

Nominal SP: Z₀=20.438368, time=385.42s
x_nom arcs = [33]

============================================================
Robust DRO (ε=1.0)
============================================================
[ Info: Inexact mode: 2/3 iters use OptimalityTarget=1 (local opt)
[ Info: MW cut enabled: core point x_core (γ/39 per interdictable arc)
Set parameter Username
Set parameter LicenseID to value 2742039
Academic license - for non-commercial use only - expires 2026-11-20
[ Info: Min-cut VI enabled: Phase 1 (all S) added
Set parameter Username
Set parameter LicenseID to value 2742039
Academic license - for non-commercial use only - expires 2026-11-20
Set parameter Username
Set parameter LicenseID to value 2742039
Academic license - for non-commercial use only - expires 2026-11-20
Set parameter Username
Set parameter LicenseID to value 2742039
Academic license - for non-commercial use only - expires 2026-11-20
Set parameter Username
Set parameter LicenseID to value 2742039
Academic license - for non-commercial use only - expires 2026-11-20
Set parameter Username
Set parameter LicenseID to value 2742039
Academic license - for non-commercial use only - expires 2026-11-20
[ Info: Mini-Benders enabled: max_mini_iter=5

=== True-DRO Benders iter 1 ===
  OMP: t₀=8.865093, UB=Inf, gap=NaN, x=[0, 0, 0, 0, 0, 1, 0, 0, 0, 0, 0, 0, 0, 0, 0, 0, 0, 0, 0, 0, 0, 0, 0, 0, 0, 0, 0, 0, 0, 0, 0, 0, 0, 0, 0, 0, 0, 0] (0.056s)
  Sub: Z₀=21.938966 [LOCAL], α=[0.000,0.000,0.000,0.000,0.000,11.607,0.000,0.000,1.189,0.000,0.000,0.000,0.000,0.000,0.917,0.000,0.000,0.000,0.000,1.410,0.000,0.000,0.000,0.000,0.000,0.000,1.371,0.000,0.000,0.000,0.000,0.000,0.081,0.081,0.000,0.000,0.000,0.000]
  Iter 1: LB=8.865093  UB=Inf  gap=NaN
  Cut: intercept=-274.736637, π_x_range=[-420.7463, 296.6756]
  Mini-Benders[1] (mw): LB=9.059472, Z₀(α*)=-7.569238, intercept=16.074344 (1.007s) [OMP=0.039 ISP-L=0.151 ISP-F=0.197 MW-L=0.212 MW-F=0.240]
  Mini-Benders[2] (mw): LB=9.059472, Z₀(α*)=-7.569238, intercept=16.074344 (0.152s) [OMP=0.038 ISP-L=0.005 ISP-F=0.028 MW-L=0.039 MW-F=0.040]
  Mini-Benders[3] (mw): LB=9.059472, Z₀(α*)=-7.569238, intercept=16.074344 (0.138s) [OMP=0.038 ISP-L=0.004 ISP-F=0.027 MW-L=0.024 MW-F=0.041]
  Mini-Benders[4]: LB stagnated, break
  α-step: Z₀=21.903433, α=[0.000,0.000,0.000,0.000,0.000,1.192,0.000,0.000,11.190,0.000,0.000,0.000,0.000,0.000,1.002,0.000,0.000,0.000,0.000,0.108,0.000,0.304,0.000,0.000,0.000,0.000,1.741,0.000,0.000,0.000,0.000,0.000,0.546,0.573,0.000,0.000,0.000,0.000]
  Alt-Benders[1] (mw): LB=9.059472, Z₀(α*)=-9.772978, intercept=17.821523 (0.160s) [OMP=0.048 ISP-L=0.004 ISP-F=0.026 MW-L=0.034 MW-F=0.045]
  Alt-Benders[2] (mw): LB=9.059472, Z₀(α*)=-9.772978, intercept=17.821523 (0.133s) [OMP=0.036 ISP-L=0.004 ISP-F=0.026 MW-L=0.027 MW-F=0.038]
  Alt-Benders[3] (mw): LB=9.059472, Z₀(α*)=-9.772978, intercept=17.821523 (0.131s) [OMP=0.035 ISP-L=0.004 ISP-F=0.026 MW-L=0.026 MW-F=0.037]
  Alt-Benders[4]: LB stagnated, break
  OMP re-solve: 0.000s

=== True-DRO Benders iter 2 ===
  OMP: t₀=9.059472, UB=Inf, gap=NaN, x=[0, 0, 0, 0, 0, 0, 0, 0, 0, 0, 0, 0, 0, 0, 0, 0, 0, 0, 0, 0, 0, 0, 0, 0, 1, 0, 0, 0, 0, 0, 0, 0, 0, 0, 0, 0, 0, 0] (0.000s)
  Sub: Z₀=21.640336 [LOCAL], α=[0.000,0.000,0.000,0.000,0.000,1.295,0.000,0.000,1.101,0.000,0.000,0.000,0.000,0.000,1.339,0.000,0.000,0.000,0.000,0.000,0.000,0.406,0.000,0.000,11.082,0.000,1.433,0.000,0.000,0.000,0.000,0.000,0.000,0.000,0.000,0.000,0.000,0.000]
  Iter 2: LB=9.059472  UB=Inf  gap=NaN
  Cut: intercept=-272.344338, π_x_range=[-420.8543, 293.9847]
  Mini-Benders[1] (mw): LB=9.059472, Z₀(α*)=-9.555775, intercept=14.835193 (0.143s) [OMP=0.042 ISP-L=0.004 ISP-F=0.029 MW-L=0.027 MW-F=0.039]
  Mini-Benders[2] (mw): LB=9.059472, Z₀(α*)=-9.555775, intercept=14.835193 (0.137s) [OMP=0.035 ISP-L=0.004 ISP-F=0.029 MW-L=0.028 MW-F=0.039]
  Mini-Benders[3]: LB stagnated, break
  α-step: Z₀=21.315552, α=[0.000,0.000,0.000,0.000,0.000,0.851,0.000,0.000,1.280,0.000,0.000,0.000,0.000,0.000,1.593,0.000,0.000,0.000,0.000,10.173,0.000,0.733,0.000,0.000,0.000,0.000,1.494,0.000,0.000,0.000,0.000,0.000,0.259,0.272,0.000,0.000,0.000,0.000]
  Alt-Benders[1] (mw): LB=9.772198, Z₀(α*)=0.079897, intercept=17.114106 (0.184s) [OMP=0.090 ISP-L=0.005 ISP-F=0.026 MW-L=0.025 MW-F=0.036]
  Alt-Benders[2] (mw): LB=9.772198, Z₀(α*)=0.079897, intercept=17.114106 (0.141s) [OMP=0.047 ISP-L=0.004 ISP-F=0.025 MW-L=0.025 MW-F=0.037]
  Alt-Benders[3] (mw): LB=9.772198, Z₀(α*)=0.079897, intercept=17.114106 (0.144s) [OMP=0.046 ISP-L=0.004 ISP-F=0.025 MW-L=0.027 MW-F=0.038]
  Alt-Benders[4]: LB stagnated, break
  OMP re-solve: 0.000s

=== True-DRO Benders iter 3 ===
  OMP: t₀=9.772198, UB=Inf, gap=NaN, x=[0, 0, 0, 0, 0, 0, 0, 0, 0, 0, 0, 0, 0, 0, 1, 0, 0, 0, 0, 0, 0, 0, 0, 0, 0, 0, 0, 0, 0, 0, 0, 0, 0, 0, 0, 0, 0, 0] (0.000s)
  Sub: Z₀=22.472267, α=[0.000,0.000,0.000,0.000,0.000,0.207,0.000,0.000,1.096,0.000,0.000,0.000,0.000,0.000,10.184,0.000,0.000,0.000,0.000,2.428,0.000,0.000,0.000,0.000,0.000,0.000,2.685,0.000,0.000,0.000,0.000,0.000,0.056,0.000,0.000,0.000,0.000,0.000]
  Iter 3: LB=9.772198  UB=22.472267  gap=5.65e-01
  Cut: intercept=18.717005, π_x_range=[-36.4760, 3.7553]
  Sherali-Cut: intercept=18.807470, π_x_range=[-35.3139, 3.6648]
  Mini-Benders[1] (mw): LB=9.772198, Z₀(α*)=-5.388417, intercept=17.067342 (0.146s) [OMP=0.063 ISP-L=0.004 ISP-F=0.025 MW-L=0.023 MW-F=0.028]
  Mini-Benders[2] (mw): LB=9.772198, Z₀(α*)=-5.388417, intercept=17.067342 (0.116s) [OMP=0.042 ISP-L=0.003 ISP-F=0.025 MW-L=0.014 MW-F=0.029]
  Mini-Benders[3]: LB stagnated, break
  α-step: Z₀=22.205420, α=[0.000,0.000,0.000,0.000,0.000,2.625,0.000,0.000,1.467,0.000,0.000,0.000,0.000,0.000,0.219,0.000,0.000,0.000,0.000,2.799,0.000,9.546,0.000,0.000,0.000,0.000,0.000,0.000,0.000,0.000,0.000,0.000,0.000,0.000,0.000,0.000,0.000,0.000]
  Alt-Benders[1] (mw): LB=9.772198, Z₀(α*)=-3.545344, intercept=17.113563 (0.170s) [OMP=0.092 ISP-L=0.004 ISP-F=0.025 MW-L=0.016 MW-F=0.031]
  Alt-Benders[2] (mw): LB=9.772198, Z₀(α*)=-3.545344, intercept=17.113563 (0.137s) [OMP=0.044 ISP-L=0.004 ISP-F=0.025 MW-L=0.031 MW-F=0.030]
  Alt-Benders[3]: LB stagnated, break
  OMP re-solve: 0.000s

=== True-DRO Benders iter 4 ===
  OMP: t₀=9.772198, UB=22.472267, gap=5.65e-01, x=[0, 0, 0, 0, 0, 0, 1, 0, 0, 0, 0, 0, 0, 0, 0, 0, 0, 0, 0, 0, 0, 0, 0, 0, 0, 0, 0, 0, 0, 0, 0, 0, 0, 0, 0, 0, 0, 0] (0.000s)
  Sub: Z₀=21.924861 [LOCAL], α=[0.000,0.000,0.000,0.000,0.000,1.583,10.075,0.000,1.938,0.000,0.000,0.000,0.000,0.000,0.789,0.000,0.000,0.000,0.000,0.837,0.000,0.000,0.000,0.000,0.000,0.000,1.433,0.000,0.000,0.000,0.000,0.000,0.000,0.000,0.000,0.000,0.000,0.000]
  Iter 4: LB=9.772198  UB=22.472267  gap=5.65e-01
  Cut: intercept=-274.247654, π_x_range=[-420.8698, 296.1725]
  Mini-Benders[1] (mw): LB=10.265633, Z₀(α*)=0.067414, intercept=16.370374 (0.177s) [OMP=0.084 ISP-L=0.006 ISP-F=0.023 MW-L=0.019 MW-F=0.043]
  Mini-Benders[2] (mw): LB=10.265633, Z₀(α*)=0.067414, intercept=16.370374 (0.140s) [OMP=0.043 ISP-L=0.004 ISP-F=0.023 MW-L=0.024 MW-F=0.043]
  Mini-Benders[3] (mw): LB=10.265633, Z₀(α*)=0.067414, intercept=16.370374 (0.140s) [OMP=0.042 ISP-L=0.004 ISP-F=0.023 MW-L=0.024 MW-F=0.044]
  Mini-Benders[4]: LB stagnated, break
  α-step: Z₀=21.838531, α=[0.000,0.000,0.000,0.000,0.000,3.175,0.000,0.000,2.824,0.000,0.000,0.000,0.000,0.000,1.517,0.000,0.000,0.000,0.000,0.000,0.000,0.000,0.000,0.000,1.824,0.000,7.317,0.000,0.000,0.000,0.000,0.000,0.000,0.000,0.000,0.000,0.000,0.000]
  Alt-Benders[1] (mw): LB=10.741087, Z₀(α*)=-2.457996, intercept=14.427357 (0.174s) [OMP=0.079 ISP-L=0.005 ISP-F=0.023 MW-L=0.020 MW-F=0.044]
  Alt-Benders[2] (mw): LB=10.741087, Z₀(α*)=-2.457996, intercept=14.427357 (0.134s) [OMP=0.039 ISP-L=0.004 ISP-F=0.023 MW-L=0.021 MW-F=0.044]
  Alt-Benders[3] (mw): LB=10.741087, Z₀(α*)=-2.457996, intercept=14.427357 (0.133s) [OMP=0.039 ISP-L=0.004 ISP-F=0.023 MW-L=0.020 MW-F=0.044]
  Alt-Benders[4]: LB stagnated, break
  OMP re-solve: 0.000s

=== True-DRO Benders iter 5 ===
  OMP: t₀=10.741087, UB=22.472267, gap=5.22e-01, x=[0, 0, 0, 0, 0, 0, 0, 0, 0, 0, 0, 0, 0, 0, 0, 0, 0, 0, 0, 0, 0, 0, 0, 0, 0, 0, 0, 0, 0, 0, 0, 0, 1, 0, 0, 0, 0, 0] (0.000s)
  Sub: Z₀=21.698920 [LOCAL], α=[0.000,0.000,0.000,0.000,0.000,1.334,0.000,0.000,2.247,0.000,0.000,0.000,0.000,0.000,0.510,0.000,0.000,0.000,0.000,0.405,0.000,0.059,0.000,0.000,0.000,0.000,1.217,0.000,0.000,0.000,0.000,0.000,10.604,0.280,0.000,0.000,0.000,0.000]
  Iter 5: LB=10.741087  UB=22.472267  gap=5.22e-01
  Cut: intercept=-272.377858, π_x_range=[-420.7677, 294.0768]
  Mini-Benders[1] (mw): LB=12.238422, Z₀(α*)=21.665386, intercept=17.705025 (0.149s) [OMP=0.051 ISP-L=0.005 ISP-F=0.029 MW-L=0.027 MW-F=0.034]
  Mini-Benders[2] (mw): LB=17.562481, Z₀(α*)=15.041443, intercept=13.110773 (0.200s) [OMP=0.094 ISP-L=0.005 ISP-F=0.030 MW-L=0.025 MW-F=0.044]
  Mini-Benders[3] (mw): LB=17.562481, Z₀(α*)=15.041443, intercept=13.110773 (0.149s) [OMP=0.044 ISP-L=0.005 ISP-F=0.030 MW-L=0.024 MW-F=0.044]
  Mini-Benders[4] (mw): LB=17.562481, Z₀(α*)=15.041443, intercept=13.110773 (0.148s) [OMP=0.044 ISP-L=0.005 ISP-F=0.030 MW-L=0.024 MW-F=0.043]
  Mini-Benders[5]: LB stagnated, break
  α-step: Z₀=23.763359, α=[0.000,0.000,0.000,0.000,0.000,0.000,2.521,0.000,1.283,0.000,0.000,0.000,0.000,0.000,2.925,0.000,0.000,0.000,0.000,0.493,0.000,2.562,0.000,0.000,0.000,0.000,4.186,0.000,0.000,0.000,0.000,0.088,0.140,2.457,0.000,0.000,0.000,0.000]
  Alt-Benders[1] (mw): LB=18.088635, Z₀(α*)=23.728012, intercept=23.728012 (0.193s) [OMP=0.090 ISP-L=0.005 ISP-F=0.025 MW-L=0.035 MW-F=0.036]
  Alt-Benders[2] (mw): LB=18.544311, Z₀(α*)=14.980607, intercept=22.480871 (0.198s) [OMP=0.067 ISP-L=0.007 ISP-F=0.034 MW-L=0.017 MW-F=0.068]
  Alt-Benders[3] (mw): LB=18.544311, Z₀(α*)=14.980607, intercept=22.480871 (0.185s) [OMP=0.044 ISP-L=0.005 ISP-F=0.034 MW-L=0.032 MW-F=0.068]
┌ Warning: The addition operator has been used on JuMP expressions a large number of times. This warning is safe to ignore but may indicate that model generation is slower than necessary. For performance reasons, you should not add expressions in a loop. Instead of x += y, use add_to_expression!(x,y) to modify x in place. If y is a single variable, you may also use add_to_expression!(x, coef, y) for x += coef*y.
└ @ JuMP C:\Users\user\.julia\packages\JuMP\i68GU\src\operators.jl:282
  Alt-Benders[4] (mw): LB=18.544311, Z₀(α*)=14.980607, intercept=22.480871 (0.228s) [OMP=0.044 ISP-L=0.005 ISP-F=0.034 MW-L=0.074 MW-F=0.069]
  Alt-Benders[5]: LB stagnated, break
  OMP re-solve: 0.000s

=== True-DRO Benders iter 6 ===
  OMP: t₀=18.544311, UB=22.472267, gap=1.75e-01, x=[1, 0, 0, 0, 0, 0, 0, 0, 0, 0, 0, 0, 0, 0, 0, 0, 0, 0, 0, 0, 0, 0, 0, 0, 0, 0, 0, 0, 0, 0, 0, 0, 0, 0, 0, 0, 0, 0] (0.000s)
  Sub: Z₀=24.950826, α=[0.000,0.000,0.000,0.000,0.000,6.931,0.000,0.000,4.829,0.000,0.000,0.000,0.000,0.000,1.052,0.000,0.000,0.000,0.000,2.711,0.000,0.307,0.000,0.000,0.000,0.000,0.000,0.000,0.000,0.000,0.000,0.000,0.825,0.000,0.000,0.000,0.000,0.000]
  Iter 6: LB=18.544311  UB=22.472267  gap=1.75e-01
  Cut: intercept=19.234446, π_x_range=[-43.1160, 5.7164]
  Sherali-Cut: intercept=20.377722, π_x_range=[-38.4364, 4.5731]
  Mini-Benders[1] (mw): LB=18.584724, Z₀(α*)=24.673953, intercept=24.673952 (0.171s) [OMP=0.063 ISP-L=0.005 ISP-F=0.027 MW-L=0.029 MW-F=0.045]
  Mini-Benders[2] (mw): LB=20.377722, Z₀(α*)=24.673953, intercept=24.673952 (0.146s) [OMP=0.048 ISP-L=0.005 ISP-F=0.030 MW-L=0.024 MW-F=0.037]
  Mini-Benders[3] (mw): LB=21.315552, Z₀(α*)=-1.838048, intercept=17.772123 (0.148s) [OMP=0.052 ISP-L=0.005 ISP-F=0.027 MW-L=0.024 MW-F=0.039]
  Mini-Benders[4] (mw): LB=21.315552, Z₀(α*)=-1.838048, intercept=17.772123 (0.134s) [OMP=0.041 ISP-L=0.005 ISP-F=0.027 MW-L=0.021 MW-F=0.039]
  Mini-Benders[5] (mw): LB=21.315552, Z₀(α*)=-1.838048, intercept=17.772123 (0.134s) [OMP=0.041 ISP-L=0.005 ISP-F=0.027 MW-L=0.022 MW-F=0.037]
  α-step: Z₀=21.315552, α=[0.000,0.000,0.000,0.000,0.000,2.344,0.000,0.000,2.176,0.000,0.000,0.000,0.000,0.000,0.697,0.000,0.000,0.000,0.000,10.906,0.000,0.000,0.000,0.000,0.000,0.000,0.000,0.000,0.000,0.000,0.000,0.000,0.531,0.000,0.000,0.000,0.000,0.000]
  Alt-Benders[1] (mw): LB=21.315552, Z₀(α*)=21.315552, intercept=17.477686 (0.142s) [OMP=0.040 ISP-L=0.005 ISP-F=0.030 MW-L=0.030 MW-F=0.035]
  Alt-Benders[2] (mw): LB=21.315552, Z₀(α*)=21.315552, intercept=17.477686 (0.142s) [OMP=0.040 ISP-L=0.005 ISP-F=0.029 MW-L=0.029 MW-F=0.036]
  Alt-Benders[3] (mw): LB=21.315552, Z₀(α*)=21.315552, intercept=17.477686 (0.143s) [OMP=0.040 ISP-L=0.005 ISP-F=0.029 MW-L=0.030 MW-F=0.036]
  Alt-Benders[4]: LB stagnated, break
  OMP re-solve: 0.000s

=== True-DRO Benders iter 7 ===
  OMP: t₀=21.315552, UB=22.472267, gap=5.15e-02, x=[0, 0, 0, 0, 0, 0, 0, 0, 0, 0, 0, 0, 0, 0, 0, 0, 0, 0, 0, 1, 0, 0, 0, 0, 0, 0, 0, 0, 0, 0, 0, 0, 0, 0, 0, 0, 0, 0] (0.000s)
  Sub: Z₀=22.210553 [LOCAL], α=[0.000,0.000,0.000,0.000,0.000,1.415,0.075,0.000,0.923,0.000,0.000,0.000,0.000,0.000,0.871,0.000,0.000,0.000,0.000,12.054,0.000,0.000,0.000,0.000,0.000,0.000,1.318,0.000,0.000,0.000,0.000,0.000,0.000,0.000,0.000,0.000,0.000,0.000]
  Iter 7: LB=21.315552  UB=22.472267  gap=5.15e-02
  Cut: intercept=-274.094443, π_x_range=[-421.4362, 296.3050]
  Mini-Benders[1] (mw): LB=21.640336, Z₀(α*)=-10.395030, intercept=15.539386 (0.150s) [OMP=0.046 ISP-L=0.004 ISP-F=0.026 MW-L=0.025 MW-F=0.047]
  Mini-Benders[2] (mw): LB=21.640336, Z₀(α*)=-10.395030, intercept=15.539386 (0.143s) [OMP=0.037 ISP-L=0.004 ISP-F=0.026 MW-L=0.025 MW-F=0.048]
  Mini-Benders[3] (mw): LB=21.640336, Z₀(α*)=-10.395030, intercept=15.539386 (0.141s) [OMP=0.037 ISP-L=0.004 ISP-F=0.026 MW-L=0.026 MW-F=0.047]
  Mini-Benders[4]: LB stagnated, break
  α-step: Z₀=21.315552, α=[0.000,0.000,0.000,0.000,0.000,0.000,0.000,0.000,2.176,0.000,0.000,0.000,0.000,0.000,0.697,0.000,0.000,0.000,0.000,0.000,0.000,0.000,0.000,0.000,10.906,0.000,2.344,0.000,0.000,0.000,0.000,0.000,0.531,0.000,0.000,0.000,0.000,0.000]
  Alt-Benders[1] (mw): LB=21.640336, Z₀(α*)=21.315552, intercept=17.233642 (0.145s) [OMP=0.037 ISP-L=0.005 ISP-F=0.028 MW-L=0.035 MW-F=0.038]
  Alt-Benders[2] (mw): LB=21.640336, Z₀(α*)=21.315552, intercept=17.233642 (0.144s) [OMP=0.037 ISP-L=0.005 ISP-F=0.028 MW-L=0.034 MW-F=0.038]
  Alt-Benders[3] (mw): LB=21.640336, Z₀(α*)=21.315552, intercept=17.233642 (0.144s) [OMP=0.037 ISP-L=0.005 ISP-F=0.028 MW-L=0.035 MW-F=0.037]
  Alt-Benders[4]: LB stagnated, break
  OMP re-solve: 0.000s

=== True-DRO Benders iter 8 ===
  OMP: t₀=21.640336, UB=22.472267, gap=3.70e-02, x=[0, 0, 0, 0, 0, 0, 0, 0, 0, 0, 0, 0, 0, 0, 0, 0, 0, 0, 0, 0, 0, 0, 0, 0, 1, 0, 0, 0, 0, 0, 0, 0, 0, 0, 0, 0, 0, 0] (0.000s)
  Sub: Z₀=21.640336 [LOCAL], α=[0.000,0.000,0.000,0.000,0.000,1.295,0.000,0.000,1.101,0.000,0.000,0.000,0.000,0.000,1.339,0.000,0.000,0.000,0.000,0.000,0.000,0.406,0.000,0.000,11.082,0.000,1.433,0.000,0.000,0.000,0.000,0.000,0.000,0.000,0.000,0.000,0.000,0.000]
  Iter 8: LB=21.640336  UB=22.472267  gap=3.70e-02
  Cut: intercept=-272.344338, π_x_range=[-420.8543, 293.9847]
  Mini-Benders[1] (mw): LB=21.640336, Z₀(α*)=21.706373, intercept=17.624463 (0.132s) [OMP=0.037 ISP-L=0.005 ISP-F=0.027 MW-L=0.027 MW-F=0.034]
  Mini-Benders[2] (mw): LB=21.665384, Z₀(α*)=3.246170, intercept=11.531046 (0.142s) [OMP=0.045 ISP-L=0.006 ISP-F=0.027 MW-L=0.016 MW-F=0.045]
  Mini-Benders[3] (mw): LB=21.665384, Z₀(α*)=3.246170, intercept=11.531047 (0.132s) [OMP=0.038 ISP-L=0.004 ISP-F=0.027 MW-L=0.017 MW-F=0.044]
  Mini-Benders[4] (mw): LB=21.665384, Z₀(α*)=3.246170, intercept=11.531047 (0.134s) [OMP=0.038 ISP-L=0.004 ISP-F=0.027 MW-L=0.017 MW-F=0.045]
  Mini-Benders[5]: LB stagnated, break
  α-step: Z₀=21.144649, α=[0.000,0.000,0.000,0.000,0.000,2.937,0.000,0.000,4.099,0.000,0.000,0.000,0.000,0.000,0.214,0.000,0.000,0.000,0.000,0.000,0.000,0.668,0.000,0.000,2.632,0.000,0.000,0.000,0.000,0.000,0.000,0.000,0.000,6.104,0.000,0.000,0.000,0.000]
  Alt-Benders[1] (mw): LB=21.665384, Z₀(α*)=21.144649, intercept=17.410811 (0.137s) [OMP=0.038 ISP-L=0.004 ISP-F=0.028 MW-L=0.023 MW-F=0.042]
  Alt-Benders[2] (mw): LB=21.665384, Z₀(α*)=21.144649, intercept=17.410811 (0.137s) [OMP=0.038 ISP-L=0.004 ISP-F=0.028 MW-L=0.023 MW-F=0.041]
  Alt-Benders[3] (mw): LB=21.665384, Z₀(α*)=21.144649, intercept=17.410811 (0.137s) [OMP=0.038 ISP-L=0.004 ISP-F=0.028 MW-L=0.023 MW-F=0.042]
  Alt-Benders[4]: LB stagnated, break
  OMP re-solve: 0.000s

=== True-DRO Benders iter 9 ===
  OMP: t₀=21.665384, UB=22.472267, gap=3.59e-02, x=[0, 0, 0, 0, 0, 0, 0, 0, 0, 0, 0, 0, 0, 0, 0, 0, 0, 0, 0, 0, 0, 0, 0, 0, 0, 0, 0, 0, 0, 0, 0, 0, 0, 1, 0, 0, 0, 0] (0.000s)
  Sub: Z₀=22.405978, α=[0.000,0.000,0.000,0.000,0.000,0.000,0.000,0.000,2.210,0.000,0.000,0.000,0.000,0.000,1.126,0.000,0.000,0.000,0.000,0.093,0.000,0.380,0.000,0.000,0.000,0.000,3.694,0.000,0.000,0.000,0.000,0.000,0.755,8.398,0.000,0.000,0.000,0.000]
  Iter 9: LB=21.665384  UB=22.405978  gap=3.31e-02
  Cut: intercept=18.350242, π_x_range=[-40.0764, 4.0557]
  Sherali-Cut: intercept=18.452397, π_x_range=[-37.0209, 3.9536]
  Mini-Benders[1] (mw): LB=21.698920, Z₀(α*)=19.537650, intercept=17.453054 (0.144s) [OMP=0.045 ISP-L=0.005 ISP-F=0.028 MW-L=0.028 MW-F=0.036]
  Mini-Benders[2] (mw): LB=21.698920, Z₀(α*)=19.537650, intercept=17.453054 (0.138s) [OMP=0.039 ISP-L=0.005 ISP-F=0.028 MW-L=0.027 MW-F=0.037]
  Mini-Benders[3] (mw): LB=21.698920, Z₀(α*)=19.537650, intercept=17.453054 (0.136s) [OMP=0.039 ISP-L=0.005 ISP-F=0.027 MW-L=0.028 MW-F=0.036]
  Mini-Benders[4]: LB stagnated, break
  α-step: Z₀=21.731483, α=[0.000,0.000,0.000,0.000,0.000,1.007,0.000,0.000,2.445,0.000,0.000,0.000,0.000,0.000,0.958,0.000,0.000,0.000,0.000,0.071,0.000,0.000,0.000,0.000,0.000,0.000,1.867,0.000,0.000,0.000,0.000,0.000,10.308,0.000,0.000,0.000,0.000,0.000]
  Alt-Benders[1] (mw): LB=21.706372, Z₀(α*)=-10.355576, intercept=17.597952 (0.137s) [OMP=0.043 ISP-L=0.004 ISP-F=0.024 MW-L=0.026 MW-F=0.037]
  Alt-Benders[2] (mw): LB=21.706372, Z₀(α*)=-10.355576, intercept=17.597952 (0.130s) [OMP=0.038 ISP-L=0.004 ISP-F=0.024 MW-L=0.025 MW-F=0.037]
  Alt-Benders[3] (mw): LB=21.706372, Z₀(α*)=-10.355576, intercept=17.597952 (0.131s) [OMP=0.038 ISP-L=0.004 ISP-F=0.024 MW-L=0.025 MW-F=0.037]
  Alt-Benders[4]: LB stagnated, break
  OMP re-solve: 0.000s

=== True-DRO Benders iter 10 ===
  OMP: t₀=21.706372, UB=22.405978, gap=3.12e-02, x=[0, 0, 0, 0, 0, 0, 0, 0, 0, 0, 0, 0, 0, 0, 0, 0, 0, 0, 0, 0, 0, 0, 0, 0, 1, 0, 0, 0, 0, 0, 0, 0, 0, 0, 0, 0, 0, 0] (0.000s)
  Sub: Z₀=21.640336 [LOCAL], α=[0.000,0.000,0.000,0.000,0.000,1.295,0.000,0.000,1.101,0.000,0.000,0.000,0.000,0.000,1.339,0.000,0.000,0.000,0.000,0.000,0.000,0.406,0.000,0.000,11.082,0.000,1.433,0.000,0.000,0.000,0.000,0.000,0.000,0.000,0.000,0.000,0.000,0.000]
  Iter 10: LB=21.706372  UB=22.405978  gap=3.12e-02
  Cut: intercept=-272.344338, π_x_range=[-420.8543, 293.9847]
  Mini-Benders[1] (mw): LB=21.706372, Z₀(α*)=21.706373, intercept=17.624463 (0.133s) [OMP=0.038 ISP-L=0.005 ISP-F=0.027 MW-L=0.027 MW-F=0.034]
  Mini-Benders[2] (mw): LB=21.706372, Z₀(α*)=21.706373, intercept=17.624463 (0.117s) [OMP=0.038 ISP-L=0.003 ISP-F=0.027 MW-L=0.013 MW-F=0.034]
  Mini-Benders[3]: LB stagnated, break
  α-step: Z₀=21.706373, α=[0.000,0.000,0.000,0.000,0.000,1.840,0.000,0.000,1.101,0.000,0.000,0.000,0.000,0.000,1.339,0.000,0.000,0.000,0.000,0.000,0.000,0.406,0.000,0.000,11.082,0.000,0.888,0.000,0.000,0.000,0.000,0.000,0.000,0.000,0.000,0.000,0.000,0.000]
  Alt-Benders[1] (mw): LB=21.706373, Z₀(α*)=21.706373, intercept=17.624463 (0.137s) [OMP=0.038 ISP-L=0.003 ISP-F=0.027 MW-L=0.013 MW-F=0.054]
  Alt-Benders[2] (mw): LB=21.706373, Z₀(α*)=21.706373, intercept=17.624463 (0.138s) [OMP=0.038 ISP-L=0.003 ISP-F=0.027 MW-L=0.013 MW-F=0.054]
  Alt-Benders[3]: LB stagnated, break
  OMP re-solve: 0.000s

=== True-DRO Benders iter 11 ===
  OMP: t₀=21.706373, UB=22.405978, gap=3.12e-02, x=[0, 0, 0, 0, 0, 0, 0, 0, 0, 0, 0, 0, 0, 0, 0, 0, 0, 0, 0, 0, 0, 0, 0, 0, 1, 0, 0, 0, 0, 0, 0, 0, 0, 0, 0, 0, 0, 0] (0.000s)
  Sub: Z₀=21.640336 [LOCAL], α=[0.000,0.000,0.000,0.000,0.000,1.295,0.000,0.000,1.101,0.000,0.000,0.000,0.000,0.000,1.339,0.000,0.000,0.000,0.000,0.000,0.000,0.406,0.000,0.000,11.082,0.000,1.433,0.000,0.000,0.000,0.000,0.000,0.000,0.000,0.000,0.000,0.000,0.000]
  Iter 11: LB=21.706373  UB=22.405978  gap=3.12e-02
  Cut: intercept=-272.344338, π_x_range=[-420.8543, 293.9847]
  Mini-Benders[1] (mw): LB=21.706373, Z₀(α*)=21.706373, intercept=17.624463 (0.116s) [OMP=0.038 ISP-L=0.003 ISP-F=0.027 MW-L=0.013 MW-F=0.034]
  Mini-Benders[2] (mw): LB=21.706373, Z₀(α*)=21.706373, intercept=17.624463 (0.117s) [OMP=0.038 ISP-L=0.003 ISP-F=0.027 MW-L=0.012 MW-F=0.034]
  Mini-Benders[3]: LB stagnated, break
  α-step: Z₀=21.706373, α=[0.000,0.000,0.000,0.000,0.000,1.840,0.000,0.000,1.101,0.000,0.000,0.000,0.000,0.000,1.339,0.000,0.000,0.000,0.000,0.000,0.000,0.406,0.000,0.000,11.082,0.000,0.888,0.000,0.000,0.000,0.000,0.000,0.000,0.000,0.000,0.000,0.000,0.000]
  Alt-Benders[1] (mw): LB=21.706373, Z₀(α*)=21.706373, intercept=17.624463 (0.137s) [OMP=0.038 ISP-L=0.003 ISP-F=0.027 MW-L=0.013 MW-F=0.053]
  Alt-Benders[2] (mw): LB=21.706373, Z₀(α*)=21.706373, intercept=17.624463 (0.136s) [OMP=0.038 ISP-L=0.003 ISP-F=0.027 MW-L=0.013 MW-F=0.054]
  Alt-Benders[3]: LB stagnated, break
  OMP re-solve: 0.000s

=== True-DRO Benders iter 12 ===
  OMP: t₀=21.706373, UB=22.405978, gap=3.12e-02, x=[0, 0, 0, 0, 0, 0, 0, 0, 0, 0, 0, 0, 0, 0, 0, 0, 0, 0, 0, 0, 0, 0, 0, 0, 1, 0, 0, 0, 0, 0, 0, 0, 0, 0, 0, 0, 0, 0] (0.000s)
  Sub: Z₀=21.939198, α=[0.000,0.000,0.000,0.000,0.000,0.000,0.000,0.000,0.819,0.000,0.000,0.000,0.000,0.000,1.878,0.000,0.000,0.000,0.000,0.000,0.000,0.000,0.000,0.000,10.648,0.000,3.311,0.000,0.000,0.000,0.000,0.000,0.000,0.000,0.000,0.000,0.000,0.000]
  Iter 12: LB=21.706373  UB=21.939198  gap=1.06e-02
  Cut: intercept=15.289661, π_x_range=[-38.2649, 6.6495]
  Sherali-Cut: intercept=17.857287, π_x_range=[-35.4226, 4.0819]
  Mini-Benders[1] (mw): LB=21.731483, Z₀(α*)=-2.457996, intercept=10.017093 (0.135s) [OMP=0.041 ISP-L=0.005 ISP-F=0.027 MW-L=0.017 MW-F=0.042]
  Mini-Benders[2] (mw): LB=21.731483, Z₀(α*)=-2.457996, intercept=10.017095 (0.133s) [OMP=0.040 ISP-L=0.004 ISP-F=0.027 MW-L=0.018 MW-F=0.042]
  Mini-Benders[3] (mw): LB=21.731483, Z₀(α*)=-2.457996, intercept=10.017095 (0.133s) [OMP=0.039 ISP-L=0.004 ISP-F=0.027 MW-L=0.018 MW-F=0.043]
  Mini-Benders[4]: LB stagnated, break
  α-step: Z₀=20.582847, α=[0.000,0.000,0.000,0.000,0.000,2.339,0.000,0.000,1.467,0.000,0.000,0.000,0.000,0.000,2.285,0.000,0.000,0.000,0.000,0.000,0.000,2.739,0.000,0.000,0.000,0.000,0.036,0.000,0.000,0.000,0.000,0.000,7.790,0.000,0.000,0.000,0.000,0.000]
  Alt-Benders[1] (mw): LB=21.731483, Z₀(α*)=20.582847, intercept=16.287139 (0.146s) [OMP=0.039 ISP-L=0.005 ISP-F=0.025 MW-L=0.027 MW-F=0.047]
  Alt-Benders[2] (mw): LB=21.731483, Z₀(α*)=20.582847, intercept=16.287139 (0.145s) [OMP=0.039 ISP-L=0.005 ISP-F=0.025 MW-L=0.026 MW-F=0.047]
  Alt-Benders[3] (mw): LB=21.731483, Z₀(α*)=20.582847, intercept=16.287139 (0.146s) [OMP=0.040 ISP-L=0.005 ISP-F=0.025 MW-L=0.028 MW-F=0.047]
  Alt-Benders[4]: LB stagnated, break
  OMP re-solve: 0.000s

=== True-DRO Benders iter 13 ===
  OMP: t₀=21.731483, UB=21.939198, gap=9.47e-03, x=[0, 0, 0, 0, 0, 0, 0, 0, 0, 0, 0, 0, 0, 0, 0, 0, 0, 0, 0, 0, 0, 0, 0, 0, 0, 0, 0, 0, 0, 0, 0, 0, 1, 0, 0, 0, 0, 0] (0.000s)
  Sub: Z₀=21.698920 [LOCAL], α=[0.000,0.000,0.000,0.000,0.000,1.334,0.000,0.000,2.247,0.000,0.000,0.000,0.000,0.000,0.510,0.000,0.000,0.000,0.000,0.405,0.000,0.059,0.000,0.000,0.000,0.000,1.217,0.000,0.000,0.000,0.000,0.000,10.604,0.280,0.000,0.000,0.000,0.000]
  Iter 13: LB=21.731483  UB=21.939198  gap=9.47e-03
  Cut: intercept=-272.377858, π_x_range=[-420.7677, 294.0768]
  Mini-Benders[1] (mw): LB=21.731483, Z₀(α*)=21.763871, intercept=17.468162 (0.166s) [OMP=0.039 ISP-L=0.005 ISP-F=0.027 MW-L=0.030 MW-F=0.062]
  Mini-Benders[2] (mw): LB=21.763869, Z₀(α*)=21.763871, intercept=17.468162 (0.165s) [OMP=0.039 ISP-L=0.005 ISP-F=0.027 MW-L=0.029 MW-F=0.063]
  Mini-Benders[3] (mw): LB=21.763869, Z₀(α*)=21.763871, intercept=17.468162 (0.166s) [OMP=0.040 ISP-L=0.005 ISP-F=0.027 MW-L=0.028 MW-F=0.064]
  Mini-Benders[4] (mw): LB=21.763869, Z₀(α*)=21.763871, intercept=17.468162 (0.166s) [OMP=0.039 ISP-L=0.005 ISP-F=0.027 MW-L=0.029 MW-F=0.063]
  Mini-Benders[5]: LB stagnated, break
  α-step: Z₀=21.763871, α=[0.000,0.000,0.000,0.000,0.000,1.265,0.000,0.000,2.298,0.000,0.000,0.000,0.000,0.000,0.458,0.000,0.000,0.000,0.000,0.457,0.000,0.008,0.000,0.000,0.000,0.000,1.285,0.000,0.000,0.000,0.000,0.000,10.884,0.000,0.000,0.000,0.000,0.000]
  Alt-Benders[1] (mw): LB=21.763871, Z₀(α*)=21.763871, intercept=17.468162 (0.141s) [OMP=0.039 ISP-L=0.005 ISP-F=0.027 MW-L=0.031 MW-F=0.036]
  Alt-Benders[2] (mw): LB=21.763871, Z₀(α*)=21.763871, intercept=17.468162 (0.140s) [OMP=0.040 ISP-L=0.005 ISP-F=0.027 MW-L=0.030 MW-F=0.036]
  Alt-Benders[3] (mw): LB=21.763871, Z₀(α*)=21.763871, intercept=17.468162 (0.140s) [OMP=0.040 ISP-L=0.005 ISP-F=0.027 MW-L=0.030 MW-F=0.036]
  Alt-Benders[4]: LB stagnated, break
  OMP re-solve: 0.000s

=== True-DRO Benders iter 14 ===
  OMP: t₀=21.763871, UB=21.939198, gap=7.99e-03, x=[0, 0, 0, 0, 0, 0, 0, 0, 0, 0, 0, 0, 0, 0, 0, 0, 0, 0, 0, 0, 0, 0, 0, 0, 0, 0, 0, 0, 0, 0, 0, 0, 1, 0, 0, 0, 0, 0] (0.000s)
  Sub: Z₀=21.698920 [LOCAL], α=[0.000,0.000,0.000,0.000,0.000,1.334,0.000,0.000,2.247,0.000,0.000,0.000,0.000,0.000,0.510,0.000,0.000,0.000,0.000,0.405,0.000,0.059,0.000,0.000,0.000,0.000,1.217,0.000,0.000,0.000,0.000,0.000,10.604,0.280,0.000,0.000,0.000,0.000]
  Iter 14: LB=21.763871  UB=21.939198  gap=7.99e-03
  Cut: intercept=-272.377858, π_x_range=[-420.7677, 294.0768]
  Mini-Benders[1] (mw): LB=21.763871, Z₀(α*)=21.763871, intercept=17.468162 (0.166s) [OMP=0.039 ISP-L=0.005 ISP-F=0.027 MW-L=0.031 MW-F=0.062]
  Mini-Benders[2] (mw): LB=21.763871, Z₀(α*)=21.763871, intercept=17.468162 (0.166s) [OMP=0.040 ISP-L=0.005 ISP-F=0.027 MW-L=0.030 MW-F=0.062]
  Mini-Benders[3]: LB stagnated, break
  α-step: Z₀=21.763871, α=[0.000,0.000,0.000,0.000,0.000,1.265,0.000,0.000,2.298,0.000,0.000,0.000,0.000,0.000,0.458,0.000,0.000,0.000,0.000,0.457,0.000,0.008,0.000,0.000,0.000,0.000,1.285,0.000,0.000,0.000,0.000,0.000,10.884,0.000,0.000,0.000,0.000,0.000]
  Alt-Benders[1] (mw): LB=21.763871, Z₀(α*)=21.763871, intercept=17.468162 (0.142s) [OMP=0.040 ISP-L=0.005 ISP-F=0.028 MW-L=0.030 MW-F=0.037]
  Alt-Benders[2] (mw): LB=21.763871, Z₀(α*)=21.763871, intercept=17.468162 (0.140s) [OMP=0.040 ISP-L=0.005 ISP-F=0.027 MW-L=0.029 MW-F=0.037]
  Alt-Benders[3]: LB stagnated, break
  OMP re-solve: 0.000s

=== True-DRO Benders iter 15 ===
  OMP: t₀=21.763871, UB=21.939198, gap=7.99e-03, x=[0, 0, 0, 0, 0, 0, 0, 0, 0, 0, 0, 0, 0, 0, 0, 0, 0, 0, 0, 0, 0, 0, 0, 0, 0, 0, 0, 0, 0, 0, 0, 0, 1, 0, 0, 0, 0, 0] (0.000s)
  Sub: Z₀=21.794553, α=[0.000,0.000,0.000,0.000,0.000,1.358,0.000,0.000,2.256,0.000,0.000,0.000,0.000,0.000,0.958,0.000,0.000,0.000,0.000,0.134,0.000,0.000,0.000,0.000,0.000,0.000,1.579,0.000,0.000,0.000,0.000,0.000,10.041,0.330,0.000,0.000,0.000,0.000]
  Iter 15: LB=21.763871  UB=21.794553  gap=1.41e-03
  Cut: intercept=16.424916, π_x_range=[-36.9738, 5.3696]
  Sherali-Cut: intercept=17.498843, π_x_range=[-33.9377, 4.2957]
  Mini-Benders[1] (mw): LB=21.794553, Z₀(α*)=21.794553, intercept=17.498845 (0.163s) [OMP=0.042 ISP-L=0.005 ISP-F=0.026 MW-L=0.029 MW-F=0.058]
  Mini-Benders[1]: gap=1.21e-10 ≤ tol, break
  α-step: Z₀=21.794553, α=[0.000,0.000,0.000,0.000,0.000,2.165,0.000,0.000,2.256,0.000,0.000,0.000,0.000,0.000,0.958,0.000,0.000,0.000,0.000,0.134,0.000,0.000,0.000,0.000,0.000,0.000,0.771,0.000,0.000,0.000,0.000,0.000,9.863,0.508,0.000,0.000,0.000,0.000]
  Alt-Benders[1] (mw): LB=21.794553, Z₀(α*)=21.794553, intercept=17.498845 (0.191s) [OMP=0.042 ISP-L=0.005 ISP-F=0.027 MW-L=0.031 MW-F=0.084]
  Alt-Benders[1]: gap=1.21e-10 ≤ tol, break
  OMP re-solve: 0.042s

=== True-DRO Benders iter 16 ===
  OMP: t₀=21.794553, UB=21.794553, gap=1.21e-10, x=[0, 0, 0, 0, 0, 0, 0, 0, 0, 0, 0, 0, 0, 0, 0, 0, 0, 0, 0, 0, 0, 0, 0, 0, 0, 0, 0, 0, 0, 0, 0, 0, 1, 0, 0, 0, 0, 0] (0.000s)
  Sub: Z₀=21.698920 [LOCAL], α=[0.000,0.000,0.000,0.000,0.000,1.334,0.000,0.000,2.247,0.000,0.000,0.000,0.000,0.000,0.510,0.000,0.000,0.000,0.000,0.405,0.000,0.059,0.000,0.000,0.000,0.000,1.217,0.000,0.000,0.000,0.000,0.000,10.604,0.280,0.000,0.000,0.000,0.000]
  Iter 16: LB=21.794553  UB=21.794553  gap=1.21e-10
True-DRO Benders converged at iter 16 (gap=1.21e-10)
  Wall time: 63.47 sec
  OMP  time: mean=0.032s, median=0.038s, max=0.094s
  Sub  time (exact): mean=0.866s, median=0.915s, q90=0.929s, max=0.932s (n=5/16)

Robust: Z₀=21.794553, iters=16, time=76.8s
x_rob arcs = [33]

============================================================
x_nom arcs: [33]
x_rob arcs: [33]
SAME? true
============================================================
